certificates/rado_a11_c78_N21.cnf
c Rad2 upper bound instance: x1 + 11*x2 - x3 = 78, interval [1,21]
p cnf 21 80
1 8 11 0
-1 -8 -11 0
1 2 7 0
-1 -2 -7 0
2 8 12 0
-2 -8 -12 0
2 3 7 0
-2 -3 -7 0
3 8 13 0
-3 -8 -13 0
3 4 7 0
-3 -4 -7 0
4 8 14 0
-4 -8 -14 0
4 5 7 0
-4 -5 -7 0
5 8 15 0
-5 -8 -15 0
5 6 7 0
-5 -6 -7 0
6 8 16 0
-6 -8 -16 0
6 7 0
-6 -7 0
7 8 17 0
-7 -8 -17 0
7 8 0
-7 -8 0
8 18 0
-8 -18 0
7 8 9 0
-7 -8 -9 0
8 9 19 0
-8 -9 -19 0
7 9 10 0
-7 -9 -10 0
8 10 20 0
-8 -10 -20 0
7 10 11 0
-7 -10 -11 0
8 11 21 0
-8 -11 -21 0
7 11 12 0
-7 -11 -12 0
1 6 13 0
-1 -6 -13 0
7 12 13 0
-7 -12 -13 0
2 6 14 0
-2 -6 -14 0
7 13 14 0
-7 -13 -14 0
3 6 15 0
-3 -6 -15 0
7 14 15 0
-7 -14 -15 0
4 6 16 0
-4 -6 -16 0
7 15 16 0
-7 -15 -16 0
5 6 17 0
-5 -6 -17 0
7 16 17 0
-7 -16 -17 0
6 18 0
-6 -18 0
7 17 18 0
-7 -17 -18 0
6 7 19 0
-6 -7 -19 0
7 18 19 0
-7 -18 -19 0
6 8 20 0
-6 -8 -20 0
7 19 20 0
-7 -19 -20 0
6 9 21 0
-6 -9 -21 0
7 20 21 0
-7 -20 -21 0
