certificates/rado_a11_c78_N21.drat
-20 -21 0
d -20 -7 -21 0
-8 -21 0
-21 0
8 0
-7 0
-18 0
6 0
20 0
19 0
17 0
0
